flow=[(0,1,1)(0,3,1)(0,6,5)(0,7,4)(0,10,1)(0,13,1)(0,15,1)(1,4,1)(1,5,1)(1,6,6)(1,7,1)(2,4,1)(2,5,1)(2,6,1)(3,2,1)(3,6,5)(3,7,2)(3,10,1)(4,0,2)(4,1,1)(4,6,1)(4,7,3)(4,8,1)(4,9,1)(4,13,1)(5,2,1)(5,4,1)(5,6,1)(5,7,2)(5,8,1)(5,9,1)(5,11,1)(5,13,1)(6,4,2)(6,5,2)(6,7,5)(6,9,1)(6,11,2)(7,3,1)(7,6,1)(7,11,1)(8,4,1)(8,5,1)(8,7,1)(8,11,1)(9,1,1)(9,4,4)(9,5,1)(9,6,7)(9,8,3)(9,10,1)(9,11,2)(10,7,1)(10,9,2)(10,11,2)(11,6,2)(11,7,2)(11,8,1)(11,10,1)(11,12,1)(13,6,2)(14,10,2)(15,11,1)(0,0,1)(3,3,1)(4,4,3)(6,6,2)(7,7,2)(10,10,2)(12,12,2)];
